solution status: optimal solution found
objective value:                                   18
x37                                                 1 	(obj:1)
x38                                                 1 	(obj:1)
x39                                                 1 	(obj:1)
x41                                                 1 	(obj:1)
x42                                                 1 	(obj:1)
x50                                                 1 	(obj:1)
x52                                                 1 	(obj:1)
x64                                                 1 	(obj:1)
x65                                                 1 	(obj:1)
x66                                                 1 	(obj:1)
x67                                                 1 	(obj:1)
x68                                                 1 	(obj:1)
x73                                                 1 	(obj:1)
x74                                                 1 	(obj:1)
x75                                                 1 	(obj:1)
x76                                                 1 	(obj:1)
x77                                                 1 	(obj:1)
x78                                                 1 	(obj:1)
one.pinholes[0].hole_out_c_y                       11 	(obj:0)
one.pinholes[0].hole_out_c_z                       15 	(obj:0)
one.ctrl_a[10].hole_y                              13 	(obj:0)
one.ctrl_a[10].hole_z                              14 	(obj:0)
one.pinholes[3].hole_out_c_y                       14 	(obj:0)
one.pinholes[3].hole_out_c_z                       13 	(obj:0)
one.thingy.devices[1].thingy.vs3_y                   15 	(obj:0)
one.thingy.devices[1].thingy.vs3_z                   19 	(obj:0)
one.pinholes[1].hole_out_c_y                       18 	(obj:0)
one.pinholes[1].hole_out_c_z                       13 	(obj:0)
one.ctrl_a[11].hole_y                              11 	(obj:0)
one.ctrl_a[11].hole_z                              12 	(obj:0)
one.thingy.devices[3].thingy.vs3_y                   15 	(obj:0)
one.thingy.devices[3].thingy.vs3_z                   14 	(obj:0)
$_21__9_z                                          15 	(obj:0)
$_18__9_y                                         -17 	(obj:0)
$_18__9_z                                          14 	(obj:0)
$_19__9_y                                          19 	(obj:0)
$_19__9_z                                          16 	(obj:0)
one.thingy.devices[0].thingy.vs3_y                   17 	(obj:0)
one.thingy.devices[0].thingy.vs3_z                   18 	(obj:0)
$_20__9_y                                          15 	(obj:0)
$_20__9_z                                          16 	(obj:0)
one.ctrl_a[11].flush_y                             10 	(obj:0)
one.ctrl_a[11].flush_z                              9 	(obj:0)
one.thingy.devices[2].thingy.vs3_y                   14 	(obj:0)
one.thingy.devices[2].thingy.vs3_z                   18 	(obj:0)
one.ctrl_a[10].flush_y                             11 	(obj:0)
one.ctrl_a[10].flush_z                             10 	(obj:0)
one.pinholes[2].hole_out_c_y                        8 	(obj:0)
one.pinholes[2].hole_out_c_z                       14 	(obj:0)
